
List of user-set options:

                                    Name   Value                used
                           compl_inf_tol = 1                     yes
                         constr_viol_tol = 1                     yes
                            dual_inf_tol = 1000                  yes
                           linear_solver = ma97                  yes
                              ma86_small = 1e-30                  no
                                  ma86_u = 0.0001                 no
                              ma97_order = best                  yes
                              ma97_small = 1e-30                 yes
                            ma97_switch1 = at_start              yes
                            ma97_switch2 = od_hd_reuse           yes
                                  ma97_u = 1e-06                 yes
                               ma97_umax = 0.5                   yes
                                max_iter = 1000                  yes
                    max_refinement_steps = 20                    yes
                    min_refinement_steps = 5                     yes
                                 mu_init = 1e-06                 yes
           mu_superlinear_decrease_power = 1.25                  yes
                   nlp_scaling_min_value = 1e-08                 yes
                        option_file_name = Preset_Case:_844_NCP.opt  yes
                             output_file = ./tmp/Preset_Case:_844_NCP.output  yes
                      print_user_options = yes                   yes
        required_infeasibility_reduction = 1                      no
                                     tol = 1e-08                 yes
                   warm_start_bound_frac = 1e-20                 yes
                   warm_start_bound_push = 1e-20                 yes
                   warm_start_init_point = yes                   yes
              warm_start_mult_bound_push = 1e-20                 yes
                warm_start_mult_init_max = 1e+40                 yes
             warm_start_slack_bound_frac = 1e-20                 yes
             warm_start_slack_bound_push = 1e-20                 yes

******************************************************************************
This program contains Ipopt, a library for large-scale nonlinear optimization.
 Ipopt is released as open source code under the Eclipse Public License (EPL).
         For more information visit http://projects.coin-or.org/Ipopt
******************************************************************************

This is Ipopt version 3.12.10, running with linear solver ma97.

Number of nonzeros in equality constraint Jacobian...:   117167
Number of nonzeros in inequality constraint Jacobian.:      213
Number of nonzeros in Lagrangian Hessian.............:    47513

Total number of variables............................:    29977
                     variables with only lower bounds:    11312
                variables with lower and upper bounds:    15135
                     variables with only upper bounds:        0
Total number of equality constraints.................:    29864
Total number of inequality constraints...............:       25
        inequality constraints with only lower bounds:        4
   inequality constraints with lower and upper bounds:        0
        inequality constraints with only upper bounds:       21

iter    objective    inf_pr   inf_du lg(mu)  ||d||  lg(rg) alpha_du alpha_pr  ls
   0 -1.8221369e-01 1.36e-01 2.00e+00  -6.0 0.00e+00    -  0.00e+00 0.00e+00   0
In iteration 0, 8 Slacks too small, adjusting variable bounds
   1 -1.8221369e-01 1.36e-01 1.01e+02  -6.0 1.14e+10    -  1.00e-14 4.34e-18h  1
   2 -1.8221341e-01 1.36e-01 1.03e+03  -6.0 2.32e+02    -  1.00e-02 9.71e-06f  1
   3 -1.8220737e-01 1.36e-01 1.02e+03  -6.0 1.95e+02    -  1.91e-02 2.97e-04h  1
   4 -1.8157665e-01 1.32e-01 1.00e+03  -6.0 1.95e+02    -  1.13e-02 3.09e-02h  1
   5 -1.8097647e-01 1.28e-01 9.85e+02  -6.0 1.91e+02    -  8.08e-03 3.04e-02h  1
   6 -1.8083261e-01 1.27e-01 9.78e+02  -6.0 1.86e+02    -  6.34e-03 7.57e-03h  1
   7 -1.8062979e-01 1.26e-01 9.26e+02  -6.0 1.19e+02    -  7.69e-02 6.44e-03h  1
   8 -1.7960823e-01 1.21e-01 9.03e+02  -6.0 1.44e+02    -  1.48e-02 4.42e-02h  2
   9 -1.7860731e-01 1.16e-01 8.75e+02  -6.0 1.14e+02    -  2.85e-02 3.65e-02h  2
iter    objective    inf_pr   inf_du lg(mu)  ||d||  lg(rg) alpha_du alpha_pr  ls
  10 -1.7758904e-01 1.12e-01 8.21e+02  -6.0 1.05e+02    -  7.42e-02 3.85e-02h  2
  11 -1.7673592e-01 1.08e-01 7.76e+02  -6.0 9.64e+01    -  6.72e-02 3.28e-02h  3
  12 -1.7622155e-01 1.06e-01 7.25e+02  -6.0 8.63e+01    -  9.98e-02 1.96e-02h  1
  13 -1.7574329e-01 1.04e-01 6.88e+02  -6.0 9.52e+01    -  8.32e-02 1.77e-02h  5
  14 -1.7544345e-01 1.03e-01 6.80e+02  -6.0 1.02e+02    -  1.23e-02 1.09e-02h  6
  15 -1.7503636e-01 1.02e-01 6.75e+02  -6.0 1.05e+02    -  1.02e-03 1.09e-02h  6
  16 -1.1979340e-01 1.00e-01 6.69e+02  -6.0 1.33e+02    -  3.88e-05 1.74e-02h  5
  17 -1.1986908e-01 1.00e-01 6.69e+02  -6.0 8.24e+01   0.0 1.19e-04 9.65e-05h  1
  18 -1.2133245e-01 1.00e-01 6.62e+02  -6.0 3.36e+01  -0.5 8.05e-03 7.11e-04h  1
  19 -1.7423131e-01 9.92e-02 6.60e+02  -6.0 3.43e+01  -1.0 7.06e-04 9.37e-03f  1
iter    objective    inf_pr   inf_du lg(mu)  ||d||  lg(rg) alpha_du alpha_pr  ls
  20 -1.4570759e-01 9.74e-02 8.30e+02  -6.0 3.99e+01  -1.4 3.57e-02 1.79e-02h  1
  21 -1.5225044e-01 9.65e-02 8.56e+02  -6.0 7.05e+01  -1.9 6.21e-02 9.12e-03h  3
  22 -1.5339701e-01 9.61e-02 8.56e+02  -6.0 1.48e+02  -2.4 7.03e-02 4.16e-03h  5
  23 -1.5401568e-01 9.52e-02 8.74e+02  -6.0 8.00e+01  -2.0 2.57e-02 9.48e-03h  5
  24 -1.5403135e-01 9.51e-02 9.42e+02  -6.0 4.01e+01   0.3 8.83e-04 6.94e-04h  1
  25 -1.5348000e-01 9.50e-02 4.41e+03  -6.0 4.13e+01  -0.2 2.12e-02 1.27e-03h  4
  26 -1.5345205e-01 9.50e-02 4.52e+03  -6.0 4.50e+01  -0.7 1.96e-03 1.26e-04h 10
  27 -1.5343952e-01 9.49e-02 8.23e+03  -6.0 5.40e+01  -1.2 2.11e-01 9.12e-04h  8
  28 -1.5369348e-01 9.45e-02 8.21e+03  -6.0 8.17e+01  -1.6 1.69e-01 4.30e-03h  6
  29 -1.5388626e-01 9.43e-02 7.40e+03  -6.0 1.71e+02  -2.1 1.24e-01 2.18e-03h  4
iter    objective    inf_pr   inf_du lg(mu)  ||d||  lg(rg) alpha_du alpha_pr  ls
  30 -1.5384885e-01 9.39e-02 7.45e+03  -6.0 8.60e+01  -1.7 1.23e-01 3.60e-03h  6
  31 -1.5577561e-01 1.15e+00 9.84e+03  -6.0 1.62e+02  -2.2 1.14e-01 7.89e-02h  1
  32 -1.5435121e-01 1.14e+00 9.75e+03  -6.0 1.39e+02  -2.6 9.35e-02 9.76e-03h  5
  33 -1.6673079e-01 1.61e+00 1.64e+04  -6.0 7.04e+01  -2.2 2.77e-01 1.22e-01h  1
  34 -1.6673886e-01 1.76e+00 1.81e+04  -6.0 3.37e+02  -2.7 4.87e-03 2.98e-02h  2
  35 -1.6671325e-01 1.76e+00 1.81e+04  -6.0 6.86e+01  -2.3 2.42e-04 1.79e-05h 14
  36r-1.6671325e-01 1.76e+00 1.00e+03  -0.2 0.00e+00  -2.7 0.00e+00 4.15e-07R 17
  37r-1.5480838e-01 1.75e+00 1.73e+03  -0.2 4.73e+03    -  2.45e-05 4.51e-06f  1
  38r-1.5157552e-01 1.65e+00 1.32e+03  -0.2 3.03e+03    -  1.64e-05 6.02e-05f  1
  39 -1.5155679e-01 1.65e+00 2.65e+06  -6.0 6.01e+01    -  1.67e-01 2.09e-03h  1
iter    objective    inf_pr   inf_du lg(mu)  ||d||  lg(rg) alpha_du alpha_pr  ls
  40 -1.5033781e-01 1.42e+00 1.86e+08  -6.0 6.84e+01    -  2.10e-03 1.46e-01h  1
  41 -1.4899004e-01 1.14e+00 1.49e+08  -6.0 6.45e+01    -  1.89e-01 1.99e-01h  1
  42 -1.4714354e-01 6.10e-01 8.17e+07  -6.0 5.05e+01    -  2.38e-01 4.52e-01h  1
  43 -1.4636971e-01 3.10e-01 4.21e+07  -6.0 2.77e+01    -  2.57e-01 4.85e-01h  1
  44 -1.4579892e-01 7.71e-02 1.08e+07  -6.0 1.50e+01    -  5.27e-01 7.43e-01h  1
  45 -1.4568926e-01 1.12e-02 1.23e+06  -6.0 4.15e+00    -  7.81e-01 8.86e-01h  1
  46 -1.4648602e-01 3.27e-03 3.11e+01  -6.0 4.56e+00    -  6.75e-01 1.00e+00h  1
  47 -1.4884416e-01 2.19e-02 2.08e+01  -6.0 1.25e+01    -  7.36e-01 8.09e-01h  1
  48 -1.5784880e-01 1.63e-01 2.49e+01  -6.0 4.14e+01    -  6.14e-01 8.56e-01F  1
  49 -1.7227843e-01 1.18e+00 5.47e+01  -6.0 1.07e+02    -  9.47e-02 9.94e-01h  1
iter    objective    inf_pr   inf_du lg(mu)  ||d||  lg(rg) alpha_du alpha_pr  ls
  50 -1.7626763e-01 1.14e+00 4.34e+01  -6.0 1.89e+02    -  3.16e-01 1.71e-01h  1
  51 -1.8179828e-01 1.21e+00 3.92e+01  -6.0 4.58e+02    -  1.21e-01 1.03e-01h  1
  52 -1.8583510e-01 6.33e-01 3.25e+01  -6.0 1.12e+02    -  9.63e-02 4.36e-01h  1
  53 -1.8578660e-01 6.11e-01 2.59e+01  -6.0 4.24e+02    -  4.11e-01 5.34e-02h  3
  54 -1.9202758e-01 7.15e-01 3.89e+01  -6.0 1.12e+02    -  3.92e-01 6.34e-01h  1
  55 -1.9942690e-01 9.78e-01 4.01e+01  -6.0 1.37e+02    -  6.59e-01 7.24e-01h  1
  56 -2.0015603e-01 9.24e-01 3.92e+01  -6.0 4.19e+02    -  8.28e-03 5.23e-02h  1
  57 -2.0472106e-01 1.86e+00 4.93e+01  -6.0 4.04e+02    -  2.74e-01 3.31e-01f  1
  58 -2.0994053e-01 3.91e+00 2.94e+01  -6.0 6.08e+02    -  3.94e-01 4.09e-01h  1
  59 -2.1315784e-01 7.06e+00 3.88e+01  -6.0 1.03e+03    -  3.17e-01 2.05e-01h  1
iter    objective    inf_pr   inf_du lg(mu)  ||d||  lg(rg) alpha_du alpha_pr  ls
  60 -2.1618536e-01 5.00e+00 4.77e+01  -6.0 7.32e+02    -  3.34e-01 2.57e-01h  1
  61 -2.1822712e-01 4.43e+00 7.58e+01  -6.0 1.54e+03    -  1.58e-01 9.36e-02h  1
  62 -2.1821553e-01 4.22e+00 7.74e+02  -6.0 7.58e+00  -3.2 1.18e-03 4.73e-02h  1
  63 -2.1821215e-01 4.16e+00 7.51e+02  -6.0 1.40e+00  -1.9 8.49e-03 1.39e-02h  1
  64 -2.1819144e-01 4.09e+00 7.38e+02  -6.0 1.25e+01  -2.4 6.90e-03 1.64e-02h  1
  65 -2.1818019e-01 3.99e+00 7.20e+02  -6.0 1.70e+00  -1.9 5.59e-02 2.54e-02h  1
  66 -2.1817224e-01 3.87e+00 6.99e+02  -6.0 1.02e+00  -1.5 6.18e-02 2.82e-02h  1
  67 -2.1816680e-01 3.82e+00 6.89e+02  -6.0 1.21e+00  -2.0 1.72e-01 1.44e-02h  1
  68 -2.1816092e-01 3.75e+00 6.77e+02  -6.0 1.04e+00  -1.6 4.75e-02 1.79e-02h  1
  69 -2.1803997e-01 2.96e+00 5.34e+02  -6.0 1.16e+00  -2.0 9.74e-02 2.12e-01h  1
iter    objective    inf_pr   inf_du lg(mu)  ||d||  lg(rg) alpha_du alpha_pr  ls
  70 -2.1784265e-01 1.72e+00 3.09e+02  -6.0 8.00e-01  -1.6 1.52e-01 4.20e-01h  1
  71 -2.1781363e-01 1.58e+00 2.85e+02  -6.0 4.45e-01  -2.1 5.19e-01 7.92e-02h  1
  72 -2.1763501e-01 7.26e-01 1.30e+02  -6.0 4.22e-01  -2.6 6.72e-01 5.44e-01h  1
  73 -2.1739587e-01 3.29e-03 9.38e+00  -6.0 1.95e-01  -2.1 1.00e+00 1.00e+00h  1
  74 -2.1756881e-01 5.93e-05 1.71e+00  -6.0 8.16e-02  -2.6 5.84e-01 1.00e+00h  1
  75 -2.1763323e-01 6.86e-05 1.11e+00  -6.0 2.50e-01  -3.1 3.55e-01 1.45e-01h  1
  76 -2.1781780e-01 2.68e-04 2.67e+00  -6.0 9.72e-01  -3.6 3.07e-01 2.06e-01f  1
  77 -2.1787357e-01 9.12e-04 3.26e+00  -6.0 3.24e-01  -3.2 1.49e-01 2.44e-01f  1
  78 -2.1795427e-01 7.36e-04 3.94e+00  -6.0 6.33e-01  -3.6 3.31e-03 1.98e-01f  1
  79 -2.1798212e-01 7.71e-04 1.09e+02  -6.0 1.01e+00  -4.1 5.18e-01 4.41e-02f  1
iter    objective    inf_pr   inf_du lg(mu)  ||d||  lg(rg) alpha_du alpha_pr  ls
  80 -2.1814522e-01 3.38e-03 3.01e+02  -6.0 3.78e+00  -4.6 8.21e-05 1.27e-01f  1
  81 -2.1813985e-01 2.08e-03 1.98e+02  -6.0 2.72e-01  -4.2 1.00e+00 3.44e-01h  1
  82 -2.1828600e-01 5.14e-03 2.07e+01  -6.0 8.67e-01  -4.6 1.00e+00 1.00e+00f  1
  83 -2.1836401e-01 2.62e-03 5.04e+00  -6.0 1.80e+00  -5.1 1.00e+00 5.57e-01h  1
  84 -2.1864646e-01 2.47e-02 3.09e+00  -6.0 5.08e+00  -5.6 1.00e+00 9.26e-01f  1
  85 -2.1872167e-01 2.17e-02 1.84e+01  -6.0 1.66e+01  -6.1 1.00e+00 1.28e-01f  1
  86 -2.2021418e-01 1.54e+00 1.01e+01  -6.0 6.84e+01  -6.5 7.33e-01 7.12e-01f  1
  87 -2.2167048e-01 8.64e-01 4.14e+00  -6.0 5.41e+01  -7.0 1.00e+00 1.00e+00f  1
  88 -2.2197849e-01 1.16e-01 1.19e+00  -6.0 6.71e+00  -5.7 1.00e+00 1.00e+00h  1
  89 -2.2288308e-01 1.15e+00 1.16e+01  -6.0 2.49e+01  -6.2 1.00e+00 6.99e-01h  1
iter    objective    inf_pr   inf_du lg(mu)  ||d||  lg(rg) alpha_du alpha_pr  ls
  90 -2.2334257e-01 1.07e+00 4.85e+01  -6.0 2.37e+01  -6.6 4.66e-01 1.00e+00h  1
  91 -2.2468608e-01 4.76e-01 1.20e+01  -6.0 8.16e+01  -7.1 1.00e+00 7.54e-01h  1
  92 -2.2499538e-01 4.56e-01 2.44e+01  -6.0 2.59e+02  -7.6 1.87e-01 6.79e-02h  1
  93 -2.2519809e-01 4.43e-01 2.37e+01  -6.0 4.43e+02  -8.1 9.12e-02 2.93e-02h  1
  94 -2.2568673e-01 9.19e-01 2.32e+01  -6.0 5.54e+04  -8.6 1.43e-03 3.38e-03h  1
  95 -2.2586888e-01 1.47e+00 8.94e+01  -6.0 1.60e+01  -6.3 5.10e-02 8.84e-01h  1
  96 -2.2591798e-01 1.18e+00 7.04e+01  -6.0 6.33e+00  -5.9 3.83e-01 1.97e-01h  1
  97 -2.2596083e-01 9.60e-01 5.33e+01  -6.0 6.82e+00  -6.4 7.84e-01 1.85e-01h  1
  98 -2.2620765e-01 6.66e-01 3.67e+01  -6.0 2.09e+01  -6.9 7.45e-01 3.90e-01h  1
  99 -2.2735254e-01 1.42e+01 4.94e+01  -6.0 8.34e+01  -7.3 5.01e-01 6.61e-01h  1
iter    objective    inf_pr   inf_du lg(mu)  ||d||  lg(rg) alpha_du alpha_pr  ls
 100 -2.2779365e-01 2.93e+01 9.99e+01  -6.0 1.57e+03  -7.8 2.17e-02 2.10e-02h  1
 101 -2.2939758e-01 1.94e+01 8.93e+01  -6.0 5.94e+02  -8.3 1.88e-01 2.31e-01h  1
 102 -2.2966861e-01 8.29e+00 3.66e+01  -6.0 2.85e+01  -7.0 3.33e-01 5.85e-01h  1
 103 -2.3006502e-01 8.66e+00 4.15e+01  -6.0 8.86e+01  -7.4 3.56e-01 2.58e-01h  1
 104 -2.3054706e-01 7.38e+00 4.12e+01  -6.0 2.65e+02  -7.9 9.62e-01 1.46e-01h  1
 105 -2.3345915e-01 7.83e+00 3.27e+01  -6.0 1.58e+03  -8.4 7.08e-02 2.88e-01h  1
 106 -2.3406187e-01 7.54e+00 4.81e+01  -6.0 5.39e+02  -8.0 4.47e-01 1.03e-01h  1
 107 -2.3435514e-01 6.91e+00 2.71e+02  -6.0 4.84e+02  -8.4 5.37e-02 8.35e-02h  1
 108 -2.3493639e-01 6.39e+00 7.79e+01  -6.0 1.12e+03  -8.9 9.75e-02 7.31e-02h  1
 109 -2.3532555e-01 5.88e+00 8.74e+02  -6.0 5.58e+02  -8.5 2.27e-01 7.96e-02h  1
iter    objective    inf_pr   inf_du lg(mu)  ||d||  lg(rg) alpha_du alpha_pr  ls
 110 -2.3604194e-01 4.24e+00 3.19e+03  -6.0 2.52e+02  -8.1 1.18e-01 2.83e-01h  1
 111 -2.3686861e-01 3.50e+00 2.50e+03  -6.0 8.56e+02  -8.5 1.59e-01 1.72e-01h  1
 112 -2.3893785e-01 3.15e+00 2.98e+04  -6.0 2.72e+02  -8.1 1.90e-02 9.82e-01h  1
 113 -2.3904730e-01 2.75e+00 2.59e+04  -6.0 1.06e+02  -7.7 1.00e+00 1.32e-01h  1
 114 -2.4089532e-01 7.76e+00 1.25e+02  -6.0 3.68e+02  -8.2 7.85e-01 1.00e+00h  1
 115 -2.4430322e-01 5.48e+01 3.61e+02  -6.0 2.47e+03  -8.6 1.47e-02 3.57e-01h  1
 116 -2.4427429e-01 5.36e+01 3.61e+02  -6.0 6.60e+01  -5.5 4.26e-02 2.38e-02h  1
 117 -2.4428297e-01 5.33e+01 3.95e+02  -6.0 8.62e+02  -6.0 6.77e-04 4.74e-03h  1
 118 -2.4421461e-01 4.86e+01 4.04e+02  -6.0 5.18e+01  -5.6 1.88e-02 9.22e-02h  1
 119 -2.4420970e-01 4.77e+01 3.89e+02  -6.0 7.46e+00  -4.2 1.03e-01 1.87e-02h  1
iter    objective    inf_pr   inf_du lg(mu)  ||d||  lg(rg) alpha_du alpha_pr  ls
 120 -2.4415452e-01 4.05e+01 3.33e+02  -6.0 1.04e+01  -4.7 5.40e-02 1.53e-01h  1
 121 -2.4389843e-01 6.24e+00 6.87e+01  -6.0 1.11e+01  -5.2 2.19e-01 8.94e-01h  1
 122 -2.4393661e-01 5.52e+00 5.11e+01  -6.0 6.48e+00  -5.7 6.50e-01 1.16e-01h  1
 123 -2.4404465e-01 4.15e+00 3.85e+01  -6.0 7.83e+00  -6.1 3.08e-01 2.65e-01h  1
 124 -2.4413255e-01 3.19e+00 2.86e+01  -6.0 6.05e+00  -6.6 1.00e+00 2.75e-01h  1
 125 -2.4432963e-01 2.33e+00 1.11e+01  -6.0 9.04e+00  -7.1 1.00e+00 1.00e+00h  1
 126 -2.4442947e-01 1.64e+00 1.47e+01  -6.0 3.35e+01  -7.6 1.00e+00 3.48e-01h  1
 127 -2.4463774e-01 1.43e+00 5.33e+00  -6.0 7.38e+01  -8.0 1.00e+00 5.20e-01h  1
 128 -2.4479671e-01 1.07e+00 2.87e+00  -6.0 1.68e+02  -8.5 4.36e-01 2.57e-01h  1
 129 -2.4599597e-01 3.97e+00 9.65e+00  -6.0 4.55e+02  -9.0 1.00e+00 1.00e+00h  1
iter    objective    inf_pr   inf_du lg(mu)  ||d||  lg(rg) alpha_du alpha_pr  ls
 130 -2.4780171e-01 2.27e+01 6.29e+01  -6.0 1.62e+03  -9.5 3.09e-01 6.42e-01h  1
 131 -2.5014651e-01 4.53e+01 1.34e+02  -6.0 1.91e+03 -10.0 1.28e-01 7.09e-01h  1
 132 -2.4903566e-01 4.14e+01 1.26e+04  -6.0 4.63e+03 -10.4 7.97e-05 1.71e-01h  1
 133 -2.5019351e-01 2.53e+01 7.42e+03  -6.0 2.62e+03 -10.0 5.98e-03 4.11e-01h  1
 134 -2.5074089e-01 1.88e+01 9.50e+03  -6.0 2.29e+03 -10.5 3.15e-02 2.56e-01h  1
 135 -2.5092121e-01 4.66e+01 2.89e+03  -6.0 3.22e+03  -8.2 2.56e-01 5.36e-01h  1
 136 -2.5160641e-01 2.04e+01 1.01e+03  -6.0 8.40e+02  -8.7 5.31e-01 6.55e-01h  1
 137 -2.5347861e-01 1.64e+01 3.49e+02  -6.0 1.23e+03  -9.2 9.23e-01 6.53e-01h  1
 138 -2.5365684e-01 9.97e+00 1.95e+02  -6.0 4.50e+02  -9.7 3.98e-01 4.35e-01h  1
 139 -2.5386501e-01 8.59e+00 1.69e+02  -6.0 1.60e+03 -10.2 4.80e-02 1.44e-01h  1
iter    objective    inf_pr   inf_du lg(mu)  ||d||  lg(rg) alpha_du alpha_pr  ls
 140 -2.5392064e-01 8.58e+00 1.79e+02  -6.0 5.68e+04 -10.6 2.95e-03 7.95e-04h  1
 141 -2.5461178e-01 4.93e+00 9.34e+01  -6.0 1.98e+03 -10.2 5.81e-01 4.68e-01h  1
 142 -2.5479254e-01 3.23e+00 6.73e+01  -6.0 7.16e+02  -9.8 6.55e-01 3.46e-01h  1
 143 -2.5492787e-01 3.45e+00 5.81e+01  -6.0 5.56e+03 -10.3 2.42e-02 1.52e-01h  1
 144 -2.5517880e-01 3.53e+00 8.50e+02  -6.0 8.43e+02  -9.8 2.45e-01 6.85e-01h  1
 145 -2.5524140e-01 3.42e+00 1.08e+03  -6.0 7.33e+03 -10.3 3.23e-01 6.21e-02h  1
 146 -2.5523271e-01 2.10e+01 2.97e+04  -6.0 6.99e+03  -9.9 1.57e-02 1.49e-01h  1
 147 -2.5547589e-01 1.47e+01 2.02e+04  -6.0 8.27e+02 -10.4 2.48e-01 3.17e-01h  1
 148 -2.5563781e-01 4.18e+01 1.40e+04  -6.0 1.03e+04    -  4.84e-02 1.72e-01h  1
 149 -2.5575289e-01 3.71e+01 1.18e+04  -6.0 5.14e+03    -  2.65e-01 1.62e-01h  1
iter    objective    inf_pr   inf_du lg(mu)  ||d||  lg(rg) alpha_du alpha_pr  ls
 150 -2.5624612e-01 3.72e+01 2.41e+04  -6.0 3.90e+03    -  1.35e-02 7.01e-01h  1
 151 -2.5646443e-01 1.99e+01 1.09e+04  -6.0 6.74e+02 -10.8 5.93e-03 4.80e-01h  1
 152 -2.5666140e-01 1.50e+01 8.16e+03  -6.0 3.34e+02  -8.6 3.58e-01 2.47e-01h  1
 153 -2.5673912e-01 1.31e+01 7.00e+03  -6.0 2.17e+02  -7.3 2.35e-02 1.23e-01h  1
 154 -2.5665017e-01 2.12e+00 1.31e+04  -6.0 1.51e+02  -7.8 6.19e-02 1.00e+00h  1
 155 -2.5665960e-01 1.99e+00 1.20e+04  -6.0 6.99e+00  -4.6 1.08e-01 6.12e-02h  1
 156 -2.5666807e-01 1.59e+00 9.44e+03  -6.0 5.41e+00  -5.1 2.77e-01 2.05e-01h  1
 157 -2.5680939e-01 6.06e-02 1.89e+02  -6.0 6.48e+00  -5.6 7.42e-01 1.00e+00h  1
 158 -2.5684876e-01 6.26e-02 8.55e+01  -6.0 3.36e+00  -6.1 4.77e-01 3.40e-01h  1
 159 -2.5685109e-01 5.81e-02 4.85e+01  -6.0 8.34e-01  -5.6 1.00e+00 7.16e-02h  1
iter    objective    inf_pr   inf_du lg(mu)  ||d||  lg(rg) alpha_du alpha_pr  ls
 160 -2.5687446e-01 1.10e-02 1.85e-01  -6.0 1.50e+00  -6.1 1.00e+00 1.00e+00f  1
 161 -2.5688785e-01 1.35e-02 1.10e-01  -6.0 3.45e+00  -6.6 1.00e+00 1.00e+00h  1
 162 -2.5692280e-01 2.21e-02 5.88e-01  -6.0 1.21e+01  -7.1 6.98e-01 9.41e-01h  1
 163 -2.5691629e-01 2.07e-01 6.11e-01  -6.0 7.76e+00  -6.6 7.55e-01 1.00e+00f  1
 164 -2.5692978e-01 3.31e-02 6.77e-02  -6.0 3.44e+00  -6.2 1.00e+00 1.00e+00h  1
 165 -2.5695768e-01 1.56e+00 2.42e+00  -6.0 2.18e+01  -6.7 7.32e-01 1.00e+00h  1
 166 -2.5713153e-01 1.80e+00 1.60e+00  -6.0 1.30e+01  -6.3 1.00e+00 1.00e+00h  1
 167 -2.5721243e-01 2.26e+00 1.91e+01  -6.0 2.40e+02  -6.7 9.20e-02 2.23e-02h  1
 168 -2.5748419e-01 2.94e+01 2.47e+01  -6.0 3.23e+01  -7.2 1.00e+00 8.14e-01h  1
 169 -2.5749913e-01 6.75e+00 3.62e+00  -6.0 2.53e+01  -7.7 1.00e+00 9.19e-01h  1
iter    objective    inf_pr   inf_du lg(mu)  ||d||  lg(rg) alpha_du alpha_pr  ls
 170 -2.5765539e-01 2.39e+00 2.07e+00  -6.0 5.93e+01  -8.2 1.00e+00 8.63e-01h  1
 171 -2.5781094e-01 1.88e-01 8.33e-01  -6.0 7.57e+01  -8.6 1.00e+00 1.00e+00h  1
 172 -2.5789187e-01 6.83e-01 9.75e-01  -6.0 1.44e+02  -9.1 1.00e+00 1.00e+00h  1
 173 -2.5797049e-01 5.16e-01 6.99e-01  -6.0 4.12e+02  -9.6 1.00e+00 1.00e+00h  1
 174 -2.5804848e-01 1.35e+00 1.05e+01  -6.0 1.09e+03 -10.1 1.00e+00 7.37e-01h  1
 175 -2.5805878e-01 1.29e+00 8.51e+02  -6.0 9.84e+03    -  3.72e-01 4.70e-02h  1
 176 -2.5807224e-01 2.16e+00 1.91e+03  -6.0 9.55e+02  -8.7 5.00e-03 3.56e-01h  1
 177 -2.5815525e-01 2.00e+00 1.73e+03  -6.0 4.39e+02  -8.3 7.34e-02 7.70e-02h  1
 178 -2.5850847e-01 2.58e+01 2.31e+03  -6.0 3.41e+04    -  5.07e-02 8.31e-02h  1
 179 -2.5874701e-01 4.29e+01 1.97e+03  -6.0 1.14e+04    -  1.45e-01 1.20e-01h  1
iter    objective    inf_pr   inf_du lg(mu)  ||d||  lg(rg) alpha_du alpha_pr  ls
 180 -2.5898377e-01 2.60e+01 1.12e+03  -6.0 3.47e+03    -  7.12e-01 4.37e-01h  1
 181 -2.5914839e-01 1.43e+01 6.21e+02  -6.0 1.30e+03    -  5.44e-01 4.52e-01h  1
 182 -2.5942339e-01 6.36e+00 1.54e+04  -6.0 9.88e+02    -  2.70e-03 7.77e-01h  1
 183 -2.5944359e-01 6.18e+00 1.46e+04  -6.0 1.82e+03    -  5.68e-01 5.22e-02h  1
 184 -2.5980036e-01 8.13e+00 3.51e+02  -6.0 7.02e+02    -  8.39e-01 1.00e+00h  1
 185 -2.5992335e-01 4.21e+00 2.14e+02  -6.0 4.19e+01  -8.8 4.05e-01 4.82e-01h  1
 186 -2.6016297e-01 2.15e+00 2.63e+03  -6.0 8.73e+01  -9.3 3.14e-01 1.00e+00h  1
 187 -2.6020389e-01 2.34e+00 1.13e+03  -6.0 2.71e+02  -9.7 2.02e-01 1.06e-01h  1
 188 -2.6033116e-01 1.30e+01 2.27e+05  -6.0 8.70e+02 -10.2 2.50e-02 1.00e+00f  1
 189 -2.6041663e-01 3.12e+00 7.27e+03  -6.0 4.34e+02    -  6.97e-01 9.65e-01h  1
iter    objective    inf_pr   inf_du lg(mu)  ||d||  lg(rg) alpha_du alpha_pr  ls
 190 -2.6050381e-01 8.18e+00 3.32e+01  -6.0 6.78e+02    -  5.55e-01 1.00e+00h  1
 191 -2.6050901e-01 2.64e+00 1.36e+01  -6.0 2.77e+02    -  6.53e-01 7.74e-01h  1
 192 -2.6050371e-01 2.42e+00 1.59e+01  -6.0 3.63e+02    -  4.17e-01 1.00e+00h  1
 193 -2.6051035e-01 7.31e-02 6.57e+00  -6.0 3.06e+01  -8.9 5.13e-01 1.00e+00h  1
 194 -2.6049827e-01 2.33e-01 1.79e-01  -6.0 1.50e+02    -  1.00e+00 1.00e+00h  1
 195 -2.6049879e-01 1.85e-01 1.91e+00  -6.0 8.53e+01    -  1.00e+00 4.21e-01h  2
 196 -2.6049627e-01 2.52e-01 1.96e-02  -6.0 6.06e+01    -  1.00e+00 1.00e+00h  1
 197 -2.6049620e-01 1.14e-04 2.10e-04  -6.0 1.57e+00    -  1.00e+00 1.00e+00h  1
 198 -2.6049631e-01 2.42e-04 1.22e-04  -6.0 3.47e+00    -  1.00e+00 1.00e+00h  1
 199 -2.6049632e-01 3.40e-07 1.69e-07  -6.0 1.26e-01    -  1.00e+00 1.00e+00h  1
iter    objective    inf_pr   inf_du lg(mu)  ||d||  lg(rg) alpha_du alpha_pr  ls
 200 -2.6103356e-01 2.18e+00 1.71e+01  -7.5 1.96e+03    -  2.88e-01 2.28e-01f  1
 201 -2.6113305e-01 2.19e+00 4.45e+01  -7.5 1.91e+03    -  2.00e-01 6.06e-02h  1
 202 -2.6115196e-01 2.16e+00 5.69e+01  -7.5 2.56e+02  -9.4 9.40e-02 1.38e-02h  1
 203 -2.6126267e-01 2.23e+00 4.41e+01  -7.5 2.68e+03    -  5.95e-04 6.30e-02f  1
 204 -2.6126924e-01 2.22e+00 2.38e+02  -7.5 7.91e+01  -6.2 1.49e-02 6.32e-03h  1
 205 -2.6127069e-01 2.22e+00 2.38e+02  -7.5 1.90e-01  -1.3 1.69e-04 3.20e-04h  1
 206 -2.6114730e-01 1.64e+00 1.20e+03  -7.5 1.69e-01  -1.8 2.28e-04 2.61e-01h  1
 207 -2.6126735e-01 1.63e+00 1.16e+03  -7.5 1.03e-01   0.5 6.38e-02 1.89e-03h  1
 208 -2.6126657e-01 1.61e+00 1.08e+03  -7.5 1.03e-01  -0.0 1.40e-01 1.72e-02h  1
 209 -2.6125759e-01 1.36e+00 9.52e+02  -7.5 1.01e-01  -0.5 5.20e-02 1.56e-01h  1
iter    objective    inf_pr   inf_du lg(mu)  ||d||  lg(rg) alpha_du alpha_pr  ls
 210 -2.6125581e-01 1.31e+00 7.84e+02  -7.5 8.55e-02  -1.0 3.41e-01 3.73e-02h  1
 211 -2.6124609e-01 1.02e+00 5.07e+02  -7.5 8.23e-02  -1.5 5.81e-01 2.19e-01h  1
 212 -2.6124150e-01 8.14e-01 2.70e+02  -7.5 6.43e-02  -1.9 1.00e+00 2.02e-01h  1
 213 -2.6124489e-01 5.39e-01 1.66e+02  -7.5 5.51e-02  -2.4 1.00e+00 3.38e-01h  1
 214 -2.6124506e-01 3.90e-01 1.02e+02  -7.5 6.61e-02  -2.9 1.00e+00 2.77e-01h  1
 215 -2.6125438e-01 2.78e-01 7.30e+01  -7.5 1.78e-01  -3.4 2.64e-01 2.87e-01h  1
 216 -2.6127006e-01 1.89e-01 4.75e+01  -7.5 1.62e-01  -3.8 5.40e-01 3.19e-01h  1
 217 -2.6127089e-01 1.24e-01 2.97e+01  -7.5 1.86e-01  -4.3 7.90e-01 3.43e-01h  1
 218 -2.6127229e-01 1.22e-01 4.34e+01  -7.5 1.48e+00  -4.8 5.56e-01 2.32e-02h  1
 219 -2.6127806e-01 3.56e-02 9.52e+00  -7.5 1.46e-01  -4.4 8.62e-01 7.08e-01h  1
iter    objective    inf_pr   inf_du lg(mu)  ||d||  lg(rg) alpha_du alpha_pr  ls
 220 -2.6128799e-01 9.20e-03 1.56e+00  -7.5 3.57e-01  -4.8 1.00e+00 7.41e-01h  1
 221 -2.6129300e-01 8.37e-03 2.09e+00  -7.5 8.64e-01  -5.3 1.00e+00 1.75e-01h  1
 222 -2.6130677e-01 3.43e-02 2.40e+00  -7.5 2.72e+00  -5.8 4.79e-01 1.72e-01h  1
 223 -2.6139227e-01 8.91e-01 2.10e+00  -7.5 5.16e+00  -6.3 1.00e+00 5.92e-01h  1
 224 -2.6141785e-01 8.86e-01 4.85e+00  -7.5 1.11e+01  -6.8 1.00e+00 9.89e-02h  1
 225 -2.6144233e-01 8.89e-01 1.60e+00  -7.5 2.46e+01  -7.2 7.46e-01 5.27e-02h  1
 226 -2.6152171e-01 7.35e-01 1.67e+00  -7.5 6.05e+01  -7.7 3.00e-01 1.01e-01h  1
 227 -2.6163775e-01 8.40e-01 1.20e+02  -7.5 9.38e+01  -8.2 6.97e-01 2.25e-01h  1
 228 -2.6206785e-01 8.72e+00 3.46e+01  -7.5 4.79e+02  -8.7 2.58e-01 5.29e-01h  1
 229 -2.6212752e-01 6.73e+00 1.68e+01  -7.5 2.27e+02  -9.1 8.64e-02 1.67e-01h  1
iter    objective    inf_pr   inf_du lg(mu)  ||d||  lg(rg) alpha_du alpha_pr  ls
 230 -2.6215542e-01 6.85e+00 1.95e+01  -7.5 4.65e+03    -  1.73e-02 9.08e-03h  1
 231 -2.6227048e-01 5.74e+00 2.95e+02  -7.5 2.18e+03    -  5.83e-01 1.42e-01h  1
 232 -2.6232289e-01 4.61e+00 1.63e+02  -7.5 1.71e+02  -9.6 2.18e-02 1.65e-01h  1
 233 -2.6238945e-01 3.33e+00 4.14e+01  -7.5 3.66e+02 -10.1 3.69e-02 2.18e-01h  1
 234 -2.6240386e-01 3.16e+00 6.20e+01  -7.5 6.91e+02 -10.6 3.29e-02 4.80e-02h  1
 235 -2.6240386e-01 3.16e+00 6.20e+01  -7.5 1.15e+03 -11.0 6.16e-08 1.09e-07h  2
 236 -2.6240389e-01 3.16e+00 6.45e+02  -7.5 7.55e-01   0.8 2.35e-03 5.21e-04h  1
 237 -2.6240385e-01 3.14e+00 6.42e+02  -7.5 7.94e-01   0.3 9.73e-04 8.49e-03h  1
 238 -2.6240383e-01 3.13e+00 6.39e+02  -7.5 7.87e-01  -0.2 9.02e-03 3.01e-03h  1
 239 -2.6240379e-01 3.11e+00 6.37e+02  -7.5 7.89e-01  -0.6 1.94e-02 3.59e-03h  1
iter    objective    inf_pr   inf_du lg(mu)  ||d||  lg(rg) alpha_du alpha_pr  ls
 240 -2.6240376e-01 3.11e+00 6.37e+02  -7.5 7.83e-01  -1.1 9.43e-04 5.60e-04h  1
 241 -2.6240356e-01 3.09e+00 6.32e+02  -7.5 7.84e-01  -1.6 7.94e-03 7.62e-03h  1
 242 -2.6240346e-01 3.08e+00 6.30e+02  -7.5 7.78e-01  -2.1 4.59e-02 3.68e-03h  1
 243 -2.6240064e-01 2.83e+00 2.65e+05  -7.5 7.78e-01  -2.5 1.52e-04 8.06e-02h  1
 244 -2.6240064e-01 2.83e+00 2.65e+05  -7.5 6.97e-01   3.3 2.19e-05 1.12e-05h  1
 245 -2.6240064e-01 2.83e+00 2.65e+05  -7.5 7.02e-01   3.7 5.33e-05 3.01e-07h  2
 246r-2.6240064e-01 2.83e+00 9.99e+02  -0.1 0.00e+00   3.3 0.00e+00 9.80e-08R  2
 247r-2.6237220e-01 2.83e+00 9.99e+02  -0.1 2.04e+05    -  3.89e-07 7.75e-08f  1
 248r-2.6238174e-01 2.83e+00 9.99e+02  -0.1 6.63e+04    -  4.40e-07 4.85e-07f  1
 249 -2.6244094e-01 2.83e+00 1.99e+01  -7.5 4.69e+05    -  1.56e-04 2.02e-05h  1
iter    objective    inf_pr   inf_du lg(mu)  ||d||  lg(rg) alpha_du alpha_pr  ls
 250 -2.6244334e-01 2.83e+00 1.99e+01  -7.5 2.93e+05    -  4.97e-03 8.26e-05h  1
 251 -2.6260731e-01 6.46e+00 1.97e+01  -7.5 2.84e+05    -  1.08e-02 6.35e-03f  1
 252 -2.6279200e-01 6.91e+00 1.96e+01  -7.5 1.10e+05    -  8.76e-04 5.57e-03f  1
 253 -2.6293249e-01 6.66e+00 1.94e+01  -7.5 2.47e+04    -  7.44e-03 2.28e-02h  1
 254 -2.6294241e-01 6.59e+00 1.83e+01  -7.5 2.58e+04    -  8.07e-02 9.33e-03h  1
 255 -2.6298001e-01 6.03e+00 1.71e+01  -7.5 1.59e+04    -  5.10e-02 8.60e-02h  1
 256 -2.6297487e-01 5.87e+00 1.49e+01  -7.5 3.30e+03    -  2.03e-01 2.67e-02h  4
 257 -2.6297285e-01 5.82e+00 1.26e+01  -7.5 2.24e+03    -  2.94e-01 9.46e-03h  6
 258 -2.6297194e-01 5.80e+00 9.66e+00  -7.5 2.01e+03    -  7.21e-01 4.12e-03h  7
 259 -2.6297111e-01 5.77e+00 9.81e+00  -7.5 1.90e+03    -  1.81e-01 3.71e-03h  8
iter    objective    inf_pr   inf_du lg(mu)  ||d||  lg(rg) alpha_du alpha_pr  ls
 260 -2.6297104e-01 5.77e+00 9.95e+00  -7.5 1.85e+03    -  1.70e-01 2.77e-04h 12
 261 -2.6295338e-01 5.35e+00 9.28e+00  -7.5 2.13e+03    -  1.81e-01 7.61e-02h  4
 262 -2.6281271e-01 2.43e+00 3.38e+00  -7.5 8.02e+02    -  3.00e-01 6.47e-01h  1
 263 -2.6281307e-01 2.33e+00 3.25e+00  -7.5 2.32e+03    -  6.73e-02 3.86e-02h  2
 264 -2.6281310e-01 2.33e+00 9.46e+00  -7.5 7.06e-01   2.8 5.08e-04 4.84e-04h  1
 265 -2.6281311e-01 2.33e+00 3.88e+01  -7.5 7.03e-01   2.3 1.66e-03 3.33e-04h  1
 266 -2.6281312e-01 2.33e+00 8.84e+01  -7.5 7.02e-01   1.8 5.91e-03 8.33e-04h  1
 267 -2.6281312e-01 2.32e+00 9.70e+01  -7.5 7.02e-01   1.3 4.26e-03 1.49e-03h  1
 268 -2.6281304e-01 2.32e+00 1.44e+02  -7.5 7.02e-01   0.9 5.12e-02 2.81e-03h  1
 269 -2.6281270e-01 2.30e+00 1.44e+02  -7.5 7.03e-01   0.4 7.78e-03 4.84e-03h  1
iter    objective    inf_pr   inf_du lg(mu)  ||d||  lg(rg) alpha_du alpha_pr  ls
 270 -2.6281232e-01 2.29e+00 1.95e+02  -7.5 7.09e-01  -0.1 1.12e-01 5.71e-03h  1
 271 -2.6281186e-01 2.28e+00 2.01e+02  -7.5 7.14e-01  -0.6 1.94e-02 6.78e-03h  1
 272 -2.6281170e-01 2.27e+00 2.14e+02  -7.5 7.20e-01  -1.0 1.78e-01 2.63e-03h  1
 273 -2.6281102e-01 2.25e+00 2.10e+02  -7.5 7.80e-01  -1.5 2.96e-02 1.08e-02h  1
 274 -2.6280877e-01 2.17e+00 1.83e+02  -7.5 7.55e-01  -2.0 1.12e-01 3.51e-02h  1
 275 -2.6280268e-01 1.99e+00 1.74e+02  -7.5 1.28e+00  -2.5 6.34e-02 8.14e-02h  1
 276 -2.6279376e-01 1.74e+00 4.10e+02  -7.5 2.89e+00  -2.9 4.45e-02 1.26e-01h  1
 277 -2.6278789e-01 1.58e+00 4.93e+02  -7.5 6.30e+00  -3.4 1.69e-01 9.01e-02h  1
 278 -2.6277918e-01 1.34e+00 6.69e+02  -7.5 1.68e+00  -3.0 2.06e-01 1.51e-01h  1
 279 -2.6275826e-01 7.90e-01 1.84e+03  -7.5 3.47e+00  -3.5 1.60e-01 4.13e-01h  1
iter    objective    inf_pr   inf_du lg(mu)  ||d||  lg(rg) alpha_du alpha_pr  ls
 280 -2.6273665e-01 4.51e-01 1.63e+03  -7.5 2.88e+00  -4.0 3.03e-01 4.30e-01h  1
 281 -2.6271346e-01 9.25e-04 8.73e+02  -7.5 2.27e-01  -3.5 5.78e-01 1.00e+00h  1
 282 -2.6271817e-01 3.64e-05 2.81e+00  -7.5 1.14e-01  -4.0 8.65e-01 1.00e+00h  1
 283 -2.6272717e-01 1.45e-04 1.09e+00  -7.5 3.42e-01  -4.5 7.79e-01 5.26e-01h  1
 284 -2.6272338e-01 9.35e-05 2.69e+00  -7.5 1.55e-01  -5.0 3.65e-01 1.00e+00h  1
 285 -2.6273003e-01 6.36e-05 1.77e+00  -7.5 4.02e-01  -5.4 8.53e-01 4.40e-01h  1
 286 -2.6273419e-01 6.44e-04 7.97e-01  -7.5 1.16e+00  -5.9 1.00e+00 5.12e-01h  1
 287 -2.6275000e-01 1.94e-03 2.46e+00  -7.5 2.43e+00  -6.4 1.00e+00 9.26e-01f  1
 288 -2.6275761e-01 1.83e-03 2.03e+00  -7.5 6.49e+00  -6.9 1.00e+00 3.38e-01f  1
 289 -2.6277149e-01 2.00e-03 3.85e+00  -7.5 3.90e+01  -7.3 8.78e-01 2.68e-01f  1
iter    objective    inf_pr   inf_du lg(mu)  ||d||  lg(rg) alpha_du alpha_pr  ls
 290 -2.6278046e-01 7.36e-03 8.15e+00  -7.5 5.53e+00  -7.8 5.08e-01 4.81e-01f  1
 291 -2.6278036e-01 6.40e-03 7.29e+01  -7.5 3.77e-01  -5.6 1.00e+00 1.32e-01h  1
 292 -2.6278768e-01 1.39e-01 3.79e+01  -7.5 5.88e+02    -  4.02e-01 1.59e-01h  1
 293 -2.6279163e-01 1.45e-01 9.84e+00  -7.5 4.47e+02    -  1.00e+00 1.46e-01h  3
 294 -2.6279099e-01 1.62e-02 7.32e-01  -7.5 3.50e-01  -6.1 9.50e-01 8.89e-01h  1
 295 -2.6279099e-01 1.62e-02 7.32e-01  -7.5 3.84e+02    -  1.15e-05 1.56e-05h  1
 296 -2.6279108e-01 1.62e-02 3.64e+00  -7.5 1.49e+04    -  1.40e-03 1.21e-04f  2
 297 -2.6280574e-01 2.69e-01 5.31e+00  -7.5 3.84e+02    -  1.19e-01 1.00e+00H  1
 298 -2.6280584e-01 1.11e-04 9.39e-03  -7.5 4.29e-01  -6.5 1.00e+00 1.00e+00h  1
 299 -2.6280990e-01 1.49e-01 1.72e+00  -7.5 1.85e+02    -  5.50e-01 4.93e-01h  1
iter    objective    inf_pr   inf_du lg(mu)  ||d||  lg(rg) alpha_du alpha_pr  ls
 300 -2.6280986e-01 1.48e-01 3.42e+02  -7.5 1.23e+00  -3.4 2.00e-02 7.55e-03h  1
 301 -2.6280988e-01 1.47e-01 1.88e+02  -7.5 7.94e-01  -3.0 1.12e-02 8.15e-03h  1
 302 -2.6280988e-01 1.43e-01 1.83e+02  -7.5 1.48e-01  -2.6 1.20e-01 2.55e-02f  1
 303 -2.6280977e-01 1.01e-01 1.33e+02  -7.5 8.64e-02  -3.0 4.77e-02 2.94e-01h  1
 304 -2.6280993e-01 9.69e-02 1.27e+02  -7.5 8.49e+01    -  7.37e-02 4.24e-02h  1
 305 -2.6280993e-01 9.22e-02 3.18e+02  -7.5 7.23e+01    -  1.00e+00 4.86e-02h  1
 306 -2.6281003e-01 7.93e-02 2.96e+02  -7.5 1.74e+02    -  1.27e-01 1.40e-01h  1
 307 -2.6281039e-01 2.93e-01 3.86e+01  -7.5 1.59e+02    -  5.09e-01 1.00e+00f  1
 308 -2.6281046e-01 9.94e-07 2.94e+01  -7.5 6.55e-03  -2.6 8.50e-01 1.00e+00h  1
 309 -2.6281046e-01 9.85e-07 4.43e+01  -7.5 1.71e-01  -3.1 2.36e-01 8.44e-03h  1
iter    objective    inf_pr   inf_du lg(mu)  ||d||  lg(rg) alpha_du alpha_pr  ls
 310 -2.6281045e-01 1.71e-08 1.68e-02  -7.5 1.63e-03  -3.6 1.00e+00 1.00e+00f  1
 311 -2.6281044e-01 4.25e-08 1.07e-02  -7.5 2.47e-03  -4.0 1.00e+00 1.00e+00h  1
 312 -2.6281045e-01 2.17e-08 5.50e-04  -7.5 5.09e-03  -4.5 1.00e+00 1.00e+00h  1
 313 -2.6281046e-01 1.05e-07 5.13e-05  -7.5 1.44e-02  -5.0 1.00e+00 1.00e+00h  1
 314 -2.6281049e-01 9.14e-07 1.89e-04  -7.5 4.35e-02  -5.5 1.00e+00 1.00e+00h  1
 315 -2.6281060e-01 8.27e-06 4.10e-04  -7.5 1.33e-01  -5.9 1.00e+00 1.00e+00h  1
 316 -2.6281093e-01 7.73e-05 4.88e-04  -7.5 4.11e-01  -6.4 1.00e+00 1.00e+00h  1
 317 -2.6281206e-01 8.53e-04 5.56e-04  -7.5 1.38e+00  -6.9 1.00e+00 1.00e+00h  1
 318 -2.6281714e-01 1.39e-02 3.94e-02  -7.5 6.71e+00  -7.4 8.75e-01 8.13e-01h  1
 319 -2.6281728e-01 1.27e-01 2.91e-02  -7.5 8.38e+01    -  1.00e+00 1.00e+00f  1
iter    objective    inf_pr   inf_du lg(mu)  ||d||  lg(rg) alpha_du alpha_pr  ls
 320 -2.6282082e-01 4.14e-03 4.51e-02  -7.5 2.84e+00  -7.0 1.00e+00 1.00e+00h  1
 321 -2.6282835e-01 1.27e-02 5.03e+00  -7.5 1.06e+01  -7.4 4.92e-01 4.12e-01h  1
 322 -2.6283975e-01 8.87e-01 1.77e+01  -7.5 2.21e+02    -  9.42e-01 1.00e+00h  1
 323 -2.6283904e-01 7.31e-01 3.21e+02  -7.5 1.72e+02    -  9.77e-02 2.01e-01h  1
 324 -2.6283321e-01 9.89e-03 2.79e+01  -7.5 2.91e+01    -  4.67e-03 1.00e+00h  1
 325 -2.6283569e-01 1.42e-02 7.12e-02  -7.5 2.80e+01    -  1.00e+00 1.00e+00h  1
 326 -2.6283516e-01 1.58e-02 8.60e-04  -7.5 1.28e+01    -  1.00e+00 1.00e+00h  1
 327 -2.6283491e-01 3.97e-03 3.49e-06  -7.5 3.91e+00    -  1.00e+00 1.00e+00h  1
 328 -2.6283490e-01 2.74e-05 1.86e-08  -7.5 3.13e-01    -  1.00e+00 1.00e+00h  1
 329 -2.6283490e-01 1.09e-09 4.46e-13  -7.5 1.98e-03    -  1.00e+00 1.00e+00h  1
iter    objective    inf_pr   inf_du lg(mu)  ||d||  lg(rg) alpha_du alpha_pr  ls
 330 -2.6284030e-01 3.25e-02 3.72e+00  -9.0 3.73e+02    -  5.56e-01 1.51e-01h  1
 331 -2.6284133e-01 1.17e-02 2.19e+00  -9.0 1.94e-01  -6.1 8.43e-01 6.41e-01h  1
 332 -2.6284192e-01 3.62e-03 8.67e-01  -9.0 6.94e-01  -6.6 1.00e+00 6.90e-01h  1
 333 -2.6284218e-01 2.63e-03 6.32e-01  -9.0 2.13e+00  -7.1 1.00e+00 2.72e-01h  1
 334 -2.6284224e-01 2.42e-03 5.80e-01  -9.0 2.34e+00  -7.5 1.00e+00 8.17e-02h  1
 335 -2.6284236e-01 1.19e-03 2.96e-01  -9.0 1.28e+00  -8.0 3.37e-01 5.10e-01h  1
 336 -2.6284251e-01 7.92e-03 2.18e-01  -9.0 4.47e+00  -8.5 1.00e+00 4.90e-01f  1
 337 -2.6284271e-01 9.80e-01 2.68e-01  -9.0 9.84e+03    -  3.00e-01 2.95e-02h  1
 338 -2.6284346e-01 6.56e-01 1.15e+00  -9.0 2.19e+02    -  1.00e+00 3.32e-01h  1
 339 -2.6284437e-01 1.18e+00 8.55e-02  -9.0 1.48e+02    -  1.00e+00 1.00e+00h  1
iter    objective    inf_pr   inf_du lg(mu)  ||d||  lg(rg) alpha_du alpha_pr  ls
 340 -2.6284389e-01 5.45e-04 3.12e-02  -9.0 2.00e+00    -  1.00e+00 1.00e+00h  1
 341 -2.6284389e-01 1.12e-05 7.44e-03  -9.0 3.15e-01    -  1.00e+00 1.00e+00h  1
 342 -2.6284389e-01 1.02e-08 9.41e-04  -9.0 2.85e-03    -  1.00e+00 1.00e+00h  1
 343 -2.6284389e-01 3.05e-10 1.01e-06  -9.0 3.78e-04    -  1.00e+00 1.00e+00h  1
 344 -2.6284389e-01 2.82e-10 1.92e-10  -9.0 3.43e-06    -  1.00e+00 1.00e+00h  1

Number of Iterations....: 344

                                   (scaled)                 (unscaled)
Objective...............:  -2.6284389471022263e-01   -2.6284389471022263e-01
Dual infeasibility......:   1.9158530317753275e-10    1.9158530317753275e-10
Constraint violation....:   2.8186277769258472e-10    2.8186277769258472e-10
Complementarity.........:   9.0909091428048041e-10    9.0909091428048041e-10
Overall NLP error.......:   9.0909091428048041e-10    9.0909091428048041e-10


Number of objective function evaluations             = 539
Number of objective gradient evaluations             = 343
Number of equality constraint evaluations            = 539
Number of inequality constraint evaluations          = 540
Number of equality constraint Jacobian evaluations   = 347
Number of inequality constraint Jacobian evaluations = 347
Number of Lagrangian Hessian evaluations             = 344
Total CPU secs in IPOPT (w/o function evaluations)   =    835.247
Total CPU secs in NLP function evaluations           =     12.404

EXIT: Optimal Solution Found.
